
Gurobi 9.0.2 (mac64, Python) logging started Wed May 20 19:10:54 2020

Set parameter LogFile to value gurobi.log

Gurobi 9.0.2 (mac64, Python) logging started Wed May 20 19:12:05 2020

Using license file /Users/nicolasbalbontingumucio/gurobi.lic
Set parameter LogFile to value gurobi.log
Academic license - for non-commercial use only
